\ Model shortest path
\ LP format - for model browsing. Use MPS format to capture full model detail.
Minimize
  126 x_0_4 + 30 x_0_12 + 106 x_0_15 + 91 x_0_16 + 89 x_0_23 + 150 x_0_27
   + 163 x_0_31 + 142 x_0_42 + 174 x_0_45 + 34 x_0_54 + 113 x_0_57
   + 141 x_0_59 + 155 x_0_62 + 60 x_0_73 + 153 x_0_84 + 166 x_1_14
   + 136 x_1_21 + 120 x_1_40 + 96 x_1_52 + 78 x_1_56 + 152 x_1_76
   + 82 x_2_5 + 141 x_2_13 + 158 x_3_17 + 115 x_3_28 + 77 x_3_32
   + 72 x_3_69 + 88 x_3_79 + 152 x_4_12 + 141 x_4_15 + 146 x_4_22
   + 163 x_4_23 + 139 x_4_31 + 122 x_4_42 + 143 x_4_47 + 95 x_4_54
   + 163 x_4_55 + 145 x_4_57 + 137 x_4_62 + 159 x_4_84 + 143 x_5_13
   + 164 x_5_60 + 165 x_6_32 + 41 x_6_60 + 55 x_7_46 + 96 x_7_48
   + 153 x_7_50 + 117 x_7_51 + 83 x_7_85 + 134 x_7_93 + 143 x_8_17
   + 173 x_8_28 + 84 x_8_35 + 87 x_8_74 + 19 x_8_77 + 143 x_8_80
   + 55 x_9_29 + 160 x_9_33 + 170 x_9_43 + 124 x_9_86 + 127 x_9_87
   + 113 x_9_94 + 164 x_9_95 + 106 x_10_18 + 46 x_10_25 + 72 x_10_63
   + 130 x_10_68 + 118 x_10_89 + 160 x_11_37 + 68 x_11_38 + 131 x_11_39
   + 18 x_11_44 + 174 x_11_56 + 119 x_11_59 + 121 x_11_67 + 103 x_11_76
   + 164 x_11_82 + 146 x_11_91 + 111 x_11_92 + 99 x_12_15 + 60 x_12_16
   + 72 x_12_23 + 172 x_12_27 + 165 x_12_31 + 173 x_12_39 + 171 x_12_42
   + 64 x_12_54 + 106 x_12_57 + 112 x_12_59 + 156 x_12_62 + 30 x_12_73
   + 148 x_12_84 + 155 x_13_60 + 31 x_14_21 + 57 x_14_40 + 139 x_14_56
   + 111 x_14_67 + 102 x_14_89 + 102 x_15_16 + 40 x_15_23 + 72 x_15_31
   + 114 x_15_54 + 159 x_15_55 + 7 x_15_57 + 62 x_15_62 + 97 x_15_73
   + 131 x_15_78 + 49 x_15_84 + 168 x_15_97 + 62 x_16_23 + 174 x_16_31
   + 164 x_16_39 + 169 x_16_44 + 123 x_16_54 + 107 x_16_57 + 73 x_16_59
   + 165 x_16_62 + 30 x_16_73 + 156 x_16_78 + 146 x_16_84 + 117 x_17_27
   + 44 x_17_28 + 153 x_17_32 + 124 x_17_42 + 150 x_17_47 + 93 x_17_69
   + 135 x_17_77 + 127 x_18_19 + 108 x_18_25 + 136 x_18_51 + 159 x_18_63
   + 144 x_18_68 + 149 x_18_70 + 158 x_18_85 + 165 x_18_93 + 112 x_19_70
   + 94 x_20_36 + 143 x_20_41 + 113 x_20_66 + 122 x_20_90 + 158 x_20_99
   + 39 x_21_40 + 109 x_21_56 + 110 x_21_67 + 159 x_21_76 + 130 x_21_89
   + 131 x_22_47 + 50 x_22_61 + 54 x_22_86 + 126 x_22_87 + 149 x_22_95
   + 112 x_23_31 + 109 x_23_54 + 45 x_23_57 + 135 x_23_59 + 103 x_23_62
   + 61 x_23_73 + 130 x_23_78 + 85 x_23_84 + 172 x_23_97 + 148 x_24_38
   + 135 x_24_41 + 151 x_24_66 + 37 x_24_72 + 105 x_24_81 + 109 x_24_92
   + 148 x_24_99 + 138 x_25_51 + 156 x_25_53 + 117 x_25_63 + 84 x_25_68
   + 173 x_25_85 + 119 x_25_89 + 146 x_25_93 + 25 x_26_65 + 158 x_26_81
   + 96 x_26_96 + 54 x_26_98 + 159 x_26_99 + 114 x_27_28 + 79 x_27_42
   + 81 x_27_45 + 139 x_27_54 + 167 x_27_69 + 124 x_28_32 + 148 x_28_42
   + 151 x_28_45 + 59 x_28_69 + 160 x_28_77 + 152 x_28_79 + 152 x_29_34
   + 168 x_29_87 + 130 x_29_94 + 117 x_30_48 + 37 x_30_50 + 158 x_31_54
   + 88 x_31_55 + 67 x_31_57 + 9 x_31_62 + 170 x_31_64 + 168 x_31_73
   + 153 x_31_78 + 37 x_31_84 + 66 x_32_69 + 174 x_32_77 + 165 x_32_79
   + 105 x_33_49 + 128 x_33_58 + 143 x_33_61 + 162 x_33_86 + 60 x_33_87
   + 59 x_33_94 + 39 x_33_95 + 48 x_34_75 + 170 x_35_49 + 131 x_35_58
   + 60 x_35_74 + 102 x_35_77 + 81 x_35_80 + 166 x_36_41 + 126 x_36_66
   + 27 x_36_90 + 131 x_36_97 + 36 x_37_39 + 161 x_37_44 + 139 x_37_45
   + 101 x_37_53 + 138 x_37_59 + 33 x_37_82 + 15 x_37_91 + 69 x_38_44
   + 135 x_38_56 + 163 x_38_59 + 144 x_38_67 + 172 x_38_72 + 57 x_38_76
   + 44 x_38_92 + 130 x_39_44 + 156 x_39_45 + 123 x_39_53 + 103 x_39_59
   + 165 x_39_73 + 61 x_39_82 + 22 x_39_91 + 119 x_40_56 + 149 x_40_67
   + 159 x_40_89 + 40 x_41_66 + 116 x_41_72 + 172 x_41_81 + 98 x_41_96
   + 163 x_41_98 + 34 x_41_99 + 159 x_42_45 + 107 x_42_47 + 115 x_42_54
   + 152 x_43_55 + 106 x_43_64 + 50 x_43_71 + 106 x_43_88 + 104 x_44_59
   + 140 x_44_67 + 113 x_44_76 + 169 x_44_82 + 147 x_44_91 + 109 x_44_92
   + 129 x_45_79 + 161 x_45_82 + 149 x_45_91 + 99 x_46_48 + 174 x_46_50
   + 137 x_46_51 + 111 x_46_85 + 163 x_46_93 + 125 x_47_61 + 152 x_47_74
   + 80 x_48_50 + 48 x_49_58 + 156 x_49_74 + 97 x_49_80 + 144 x_49_87
   + 163 x_49_94 + 104 x_49_95 + 173 x_51_53 + 77 x_51_68 + 35 x_51_85
   + 34 x_51_93 + 134 x_52_56 + 170 x_52_65 + 115 x_52_81 + 153 x_53_67
   + 108 x_53_68 + 68 x_53_82 + 160 x_53_89 + 106 x_53_91 + 147 x_53_93
   + 120 x_54_57 + 152 x_54_62 + 93 x_54_73 + 156 x_54_84 + 155 x_55_57
   + 97 x_55_62 + 99 x_55_64 + 159 x_55_71 + 123 x_55_84 + 133 x_56_67
   + 78 x_56_76 + 135 x_56_92 + 58 x_57_62 + 103 x_57_73 + 126 x_57_78
   + 42 x_57_84 + 162 x_57_97 + 159 x_58_61 + 109 x_58_74 + 52 x_58_80
   + 148 x_58_87 + 111 x_58_95 + 89 x_59_73 + 164 x_59_82 + 125 x_59_91
   + 75 x_61_86 + 93 x_61_87 + 167 x_61_94 + 106 x_61_95 + 159 x_62_73
   + 148 x_62_78 + 30 x_62_84 + 172 x_62_97 + 167 x_63_70 + 123 x_63_89
   + 82 x_64_71 + 127 x_64_83 + 121 x_64_88 + 134 x_65_81 + 98 x_65_96
   + 72 x_65_98 + 156 x_65_99 + 142 x_66_72 + 143 x_66_90 + 136 x_66_96
   + 170 x_66_97 + 72 x_66_99 + 119 x_67_76 + 121 x_67_89 + 164 x_68_82
   + 112 x_68_85 + 169 x_68_89 + 69 x_68_93 + 160 x_69_77 + 140 x_69_79
   + 163 x_71_83 + 62 x_71_88 + 78 x_72_81 + 130 x_72_92 + 144 x_72_96
   + 122 x_72_99 + 145 x_73_84 + 106 x_74_77 + 60 x_74_80 + 170 x_76_81
   + 69 x_76_92 + 163 x_77_80 + 119 x_78_84 + 156 x_78_90 + 44 x_78_97
   + 156 x_80_95 + 135 x_81_92 + 152 x_81_96 + 162 x_81_99 + 40 x_82_91
   + 146 x_83_88 + 145 x_84_97 + 52 x_85_93 + 101 x_86_87 + 158 x_86_94
   + 135 x_86_95 + 74 x_87_94 + 40 x_87_95 + 112 x_90_97 + 85 x_94_95
   + 65 x_96_98 + 64 x_96_99 + 129 x_98_99
Subject To
 flow_0: x_0_4 + x_0_12 + x_0_15 + x_0_16 + x_0_23 + x_0_27 + x_0_31
   + x_0_42 + x_0_45 + x_0_54 + x_0_57 + x_0_59 + x_0_62 + x_0_73 + x_0_84
   = 1
 flow_1: x_1_14 + x_1_21 + x_1_40 + x_1_52 + x_1_56 + x_1_76 = 0
 flow_2: x_2_5 + x_2_13 = 0
 flow_3: x_3_17 + x_3_28 + x_3_32 + x_3_69 + x_3_79 = 0
 flow_4: - x_0_4 + x_4_12 + x_4_15 + x_4_22 + x_4_23 + x_4_31 + x_4_42
   + x_4_47 + x_4_54 + x_4_55 + x_4_57 + x_4_62 + x_4_84 = 0
 flow_5: - x_2_5 + x_5_13 + x_5_60 = 0
 flow_6: x_6_32 + x_6_60 = 0
 flow_7: x_7_46 + x_7_48 + x_7_50 + x_7_51 + x_7_85 + x_7_93 = 0
 flow_8: x_8_17 + x_8_28 + x_8_35 + x_8_74 + x_8_77 + x_8_80 = 0
 flow_9: x_9_29 + x_9_33 + x_9_43 + x_9_86 + x_9_87 + x_9_94 + x_9_95 = 0
 flow_10: x_10_18 + x_10_25 + x_10_63 + x_10_68 + x_10_89 = 0
 flow_11: x_11_37 + x_11_38 + x_11_39 + x_11_44 + x_11_56 + x_11_59
   + x_11_67 + x_11_76 + x_11_82 + x_11_91 + x_11_92 = 0
 flow_12: - x_0_12 - x_4_12 + x_12_15 + x_12_16 + x_12_23 + x_12_27
   + x_12_31 + x_12_39 + x_12_42 + x_12_54 + x_12_57 + x_12_59 + x_12_62
   + x_12_73 + x_12_84 = 0
 flow_13: - x_2_13 - x_5_13 + x_13_60 = 0
 flow_14: - x_1_14 + x_14_21 + x_14_40 + x_14_56 + x_14_67 + x_14_89 = 0
 flow_15: - x_0_15 - x_4_15 - x_12_15 + x_15_16 + x_15_23 + x_15_31
   + x_15_54 + x_15_55 + x_15_57 + x_15_62 + x_15_73 + x_15_78 + x_15_84
   + x_15_97 = 0
 flow_16: - x_0_16 - x_12_16 - x_15_16 + x_16_23 + x_16_31 + x_16_39
   + x_16_44 + x_16_54 + x_16_57 + x_16_59 + x_16_62 + x_16_73 + x_16_78
   + x_16_84 = 0
 flow_17: - x_3_17 - x_8_17 + x_17_27 + x_17_28 + x_17_32 + x_17_42
   + x_17_47 + x_17_69 + x_17_77 = 0
 flow_18: - x_10_18 + x_18_19 + x_18_25 + x_18_51 + x_18_63 + x_18_68
   + x_18_70 + x_18_85 + x_18_93 = 0
 flow_19: - x_18_19 + x_19_70 = 0
 flow_20: x_20_36 + x_20_41 + x_20_66 + x_20_90 + x_20_99 = 0
 flow_21: - x_1_21 - x_14_21 + x_21_40 + x_21_56 + x_21_67 + x_21_76
   + x_21_89 = 0
 flow_22: - x_4_22 + x_22_47 + x_22_61 + x_22_86 + x_22_87 + x_22_95 = 0
 flow_23: - x_0_23 - x_4_23 - x_12_23 - x_15_23 - x_16_23 + x_23_31
   + x_23_54 + x_23_57 + x_23_59 + x_23_62 + x_23_73 + x_23_78 + x_23_84
   + x_23_97 = 0
 flow_24: x_24_38 + x_24_41 + x_24_66 + x_24_72 + x_24_81 + x_24_92
   + x_24_99 = 0
 flow_25: - x_10_25 - x_18_25 + x_25_51 + x_25_53 + x_25_63 + x_25_68
   + x_25_85 + x_25_89 + x_25_93 = 0
 flow_26: x_26_65 + x_26_81 + x_26_96 + x_26_98 + x_26_99 = 0
 flow_27: - x_0_27 - x_12_27 - x_17_27 + x_27_28 + x_27_42 + x_27_45
   + x_27_54 + x_27_69 = 0
 flow_28: - x_3_28 - x_8_28 - x_17_28 - x_27_28 + x_28_32 + x_28_42
   + x_28_45 + x_28_69 + x_28_77 + x_28_79 = 0
 flow_29: - x_9_29 + x_29_34 + x_29_87 + x_29_94 = 0
 flow_30: x_30_48 + x_30_50 = 0
 flow_31: - x_0_31 - x_4_31 - x_12_31 - x_15_31 - x_16_31 - x_23_31
   + x_31_54 + x_31_55 + x_31_57 + x_31_62 + x_31_64 + x_31_73 + x_31_78
   + x_31_84 = 0
 flow_32: - x_3_32 - x_6_32 - x_17_32 - x_28_32 + x_32_69 + x_32_77
   + x_32_79 = 0
 flow_33: - x_9_33 + x_33_49 + x_33_58 + x_33_61 + x_33_86 + x_33_87
   + x_33_94 + x_33_95 = 0
 flow_34: - x_29_34 + x_34_75 = 0
 flow_35: - x_8_35 + x_35_49 + x_35_58 + x_35_74 + x_35_77 + x_35_80 = 0
 flow_36: - x_20_36 + x_36_41 + x_36_66 + x_36_90 + x_36_97 = 0
 flow_37: - x_11_37 + x_37_39 + x_37_44 + x_37_45 + x_37_53 + x_37_59
   + x_37_82 + x_37_91 = 0
 flow_38: - x_11_38 - x_24_38 + x_38_44 + x_38_56 + x_38_59 + x_38_67
   + x_38_72 + x_38_76 + x_38_92 = 0
 flow_39: - x_11_39 - x_12_39 - x_16_39 - x_37_39 + x_39_44 + x_39_45
   + x_39_53 + x_39_59 + x_39_73 + x_39_82 + x_39_91 = 0
 flow_40: - x_1_40 - x_14_40 - x_21_40 + x_40_56 + x_40_67 + x_40_89 = 0
 flow_41: - x_20_41 - x_24_41 - x_36_41 + x_41_66 + x_41_72 + x_41_81
   + x_41_96 + x_41_98 + x_41_99 = 0
 flow_42: - x_0_42 - x_4_42 - x_12_42 - x_17_42 - x_27_42 - x_28_42
   + x_42_45 + x_42_47 + x_42_54 = 0
 flow_43: - x_9_43 + x_43_55 + x_43_64 + x_43_71 + x_43_88 = 0
 flow_44: - x_11_44 - x_16_44 - x_37_44 - x_38_44 - x_39_44 + x_44_59
   + x_44_67 + x_44_76 + x_44_82 + x_44_91 + x_44_92 = 0
 flow_45: - x_0_45 - x_27_45 - x_28_45 - x_37_45 - x_39_45 - x_42_45
   + x_45_79 + x_45_82 + x_45_91 = 0
 flow_46: - x_7_46 + x_46_48 + x_46_50 + x_46_51 + x_46_85 + x_46_93 = 0
 flow_47: - x_4_47 - x_17_47 - x_22_47 - x_42_47 + x_47_61 + x_47_74 = 0
 flow_48: - x_7_48 - x_30_48 - x_46_48 + x_48_50 = 0
 flow_49: - x_33_49 - x_35_49 + x_49_58 + x_49_74 + x_49_80 + x_49_87
   + x_49_94 + x_49_95 = 0
 flow_50: - x_7_50 - x_30_50 - x_46_50 - x_48_50 = 0
 flow_51: - x_7_51 - x_18_51 - x_25_51 - x_46_51 + x_51_53 + x_51_68
   + x_51_85 + x_51_93 = 0
 flow_52: - x_1_52 + x_52_56 + x_52_65 + x_52_81 = 0
 flow_53: - x_25_53 - x_37_53 - x_39_53 - x_51_53 + x_53_67 + x_53_68
   + x_53_82 + x_53_89 + x_53_91 + x_53_93 = 0
 flow_54: - x_0_54 - x_4_54 - x_12_54 - x_15_54 - x_16_54 - x_23_54
   - x_27_54 - x_31_54 - x_42_54 + x_54_57 + x_54_62 + x_54_73 + x_54_84
   = 0
 flow_55: - x_4_55 - x_15_55 - x_31_55 - x_43_55 + x_55_57 + x_55_62
   + x_55_64 + x_55_71 + x_55_84 = 0
 flow_56: - x_1_56 - x_11_56 - x_14_56 - x_21_56 - x_38_56 - x_40_56
   - x_52_56 + x_56_67 + x_56_76 + x_56_92 = 0
 flow_57: - x_0_57 - x_4_57 - x_12_57 - x_15_57 - x_16_57 - x_23_57
   - x_31_57 - x_54_57 - x_55_57 + x_57_62 + x_57_73 + x_57_78 + x_57_84
   + x_57_97 = 0
 flow_58: - x_33_58 - x_35_58 - x_49_58 + x_58_61 + x_58_74 + x_58_80
   + x_58_87 + x_58_95 = 0
 flow_59: - x_0_59 - x_11_59 - x_12_59 - x_16_59 - x_23_59 - x_37_59
   - x_38_59 - x_39_59 - x_44_59 + x_59_73 + x_59_82 + x_59_91 = 0
 flow_60: - x_5_60 - x_6_60 - x_13_60 = 0
 flow_61: - x_22_61 - x_33_61 - x_47_61 - x_58_61 + x_61_86 + x_61_87
   + x_61_94 + x_61_95 = 0
 flow_62: - x_0_62 - x_4_62 - x_12_62 - x_15_62 - x_16_62 - x_23_62
   - x_31_62 - x_54_62 - x_55_62 - x_57_62 + x_62_73 + x_62_78 + x_62_84
   + x_62_97 = 0
 flow_63: - x_10_63 - x_18_63 - x_25_63 + x_63_70 + x_63_89 = 0
 flow_64: - x_31_64 - x_43_64 - x_55_64 + x_64_71 + x_64_83 + x_64_88 = 0
 flow_65: - x_26_65 - x_52_65 + x_65_81 + x_65_96 + x_65_98 + x_65_99 = 0
 flow_66: - x_20_66 - x_24_66 - x_36_66 - x_41_66 + x_66_72 + x_66_90
   + x_66_96 + x_66_97 + x_66_99 = 0
 flow_67: - x_11_67 - x_14_67 - x_21_67 - x_38_67 - x_40_67 - x_44_67
   - x_53_67 - x_56_67 + x_67_76 + x_67_89 = 0
 flow_68: - x_10_68 - x_18_68 - x_25_68 - x_51_68 - x_53_68 + x_68_82
   + x_68_85 + x_68_89 + x_68_93 = 0
 flow_69: - x_3_69 - x_17_69 - x_27_69 - x_28_69 - x_32_69 + x_69_77
   + x_69_79 = 0
 flow_70: - x_18_70 - x_19_70 - x_63_70 = 0
 flow_71: - x_43_71 - x_55_71 - x_64_71 + x_71_83 + x_71_88 = 0
 flow_72: - x_24_72 - x_38_72 - x_41_72 - x_66_72 + x_72_81 + x_72_92
   + x_72_96 + x_72_99 = 0
 flow_73: - x_0_73 - x_12_73 - x_15_73 - x_16_73 - x_23_73 - x_31_73
   - x_39_73 - x_54_73 - x_57_73 - x_59_73 - x_62_73 + x_73_84 = 0
 flow_74: - x_8_74 - x_35_74 - x_47_74 - x_49_74 - x_58_74 + x_74_77
   + x_74_80 = 0
 flow_75: - x_34_75 = 0
 flow_76: - x_1_76 - x_11_76 - x_21_76 - x_38_76 - x_44_76 - x_56_76
   - x_67_76 + x_76_81 + x_76_92 = 0
 flow_77: - x_8_77 - x_17_77 - x_28_77 - x_32_77 - x_35_77 - x_69_77
   - x_74_77 + x_77_80 = 0
 flow_78: - x_15_78 - x_16_78 - x_23_78 - x_31_78 - x_57_78 - x_62_78
   + x_78_84 + x_78_90 + x_78_97 = 0
 flow_79: - x_3_79 - x_28_79 - x_32_79 - x_45_79 - x_69_79 = 0
 flow_80: - x_8_80 - x_35_80 - x_49_80 - x_58_80 - x_74_80 - x_77_80
   + x_80_95 = 0
 flow_81: - x_24_81 - x_26_81 - x_41_81 - x_52_81 - x_65_81 - x_72_81
   - x_76_81 + x_81_92 + x_81_96 + x_81_99 = 0
 flow_82: - x_11_82 - x_37_82 - x_39_82 - x_44_82 - x_45_82 - x_53_82
   - x_59_82 - x_68_82 + x_82_91 = 0
 flow_83: - x_64_83 - x_71_83 + x_83_88 = 0
 flow_84: - x_0_84 - x_4_84 - x_12_84 - x_15_84 - x_16_84 - x_23_84
   - x_31_84 - x_54_84 - x_55_84 - x_57_84 - x_62_84 - x_73_84 - x_78_84
   + x_84_97 = 0
 flow_85: - x_7_85 - x_18_85 - x_25_85 - x_46_85 - x_51_85 - x_68_85
   + x_85_93 = 0
 flow_86: - x_9_86 - x_22_86 - x_33_86 - x_61_86 + x_86_87 + x_86_94
   + x_86_95 = 0
 flow_87: - x_9_87 - x_22_87 - x_29_87 - x_33_87 - x_49_87 - x_58_87
   - x_61_87 - x_86_87 + x_87_94 + x_87_95 = 0
 flow_88: - x_43_88 - x_64_88 - x_71_88 - x_83_88 = 0
 flow_89: - x_10_89 - x_14_89 - x_21_89 - x_25_89 - x_40_89 - x_53_89
   - x_63_89 - x_67_89 - x_68_89 = 0
 flow_90: - x_20_90 - x_36_90 - x_66_90 - x_78_90 + x_90_97 = 0
 flow_91: - x_11_91 - x_37_91 - x_39_91 - x_44_91 - x_45_91 - x_53_91
   - x_59_91 - x_82_91 = 0
 flow_92: - x_11_92 - x_24_92 - x_38_92 - x_44_92 - x_56_92 - x_72_92
   - x_76_92 - x_81_92 = 0
 flow_93: - x_7_93 - x_18_93 - x_25_93 - x_46_93 - x_51_93 - x_53_93
   - x_68_93 - x_85_93 = 0
 flow_94: - x_9_94 - x_29_94 - x_33_94 - x_49_94 - x_61_94 - x_86_94
   - x_87_94 + x_94_95 = 0
 flow_95: - x_9_95 - x_22_95 - x_33_95 - x_49_95 - x_58_95 - x_61_95
   - x_80_95 - x_86_95 - x_87_95 - x_94_95 = 0
 flow_96: - x_26_96 - x_41_96 - x_65_96 - x_66_96 - x_72_96 - x_81_96
   + x_96_98 + x_96_99 = 0
 flow_97: - x_15_97 - x_23_97 - x_36_97 - x_57_97 - x_62_97 - x_66_97
   - x_78_97 - x_84_97 - x_90_97 = 0
 flow_98: - x_26_98 - x_41_98 - x_65_98 - x_96_98 + x_98_99 = 0
 flow_99: - x_20_99 - x_24_99 - x_26_99 - x_41_99 - x_65_99 - x_66_99
   - x_72_99 - x_81_99 - x_96_99 - x_98_99 = -1
Bounds
End
